
Welcome to IBM(R) ILOG(R) CPLEX(R) Interactive Optimizer 22.1.1.0
  with Simplex, Mixed Integer & Barrier Optimizers
5725-A06 5725-A29 5724-Y48 5724-Y49 5724-Y54 5724-Y55 5655-Y21
Copyright IBM Corp. 1988, 2022.  All Rights Reserved.

Type 'help' for a list of available commands.
Type 'help' followed by a command name for more
information on commands.

CPLEX> Selected objective sense:  MINIMIZE
Selected objective  name:  00000000
Selected RHS        name:  RHS1
Selected bound      name:  BOUND
Problem 'ee.mps' read.
Read time = 0.02 sec. (3.17 ticks)
CPLEX> New value for time limit in seconds: 7200
CPLEX> New value for parallel optimization mode: -1
CPLEX> New value for default parallel thread count: 40
CPLEX> New value for mixed integer optimality gap tolerance: 1e-13
CPLEX> Version identifier: 22.1.1.0 | 2022-11-28 | 9160aff4d
CPXPARAM_Threads                                 40
CPXPARAM_Parallel                                -1
CPXPARAM_TimeLimit                               7200
CPXPARAM_MIP_Tolerances_MIPGap                   1e-13
Found incumbent of value 0.000000 after 0.00 sec. (0.31 ticks)
Tried aggregator 2 times.
MIP Presolve eliminated 178 rows and 2745 columns.
MIP Presolve modified 6090 coefficients.
Aggregator did 713 substitutions.
Reduced MIP has 3636 rows, 7835 columns, and 28932 nonzeros.
Reduced MIP has 7835 binaries, 0 generals, 0 SOSs, and 0 indicators.
Presolve time = 0.07 sec. (68.91 ticks)
Probing time = 0.03 sec. (5.57 ticks)
Tried aggregator 1 time.
Detecting symmetries...
Reduced MIP has 3636 rows, 7835 columns, and 28932 nonzeros.
Reduced MIP has 7835 binaries, 0 generals, 0 SOSs, and 0 indicators.
Presolve time = 0.03 sec. (22.02 ticks)
Probing time = 0.02 sec. (5.38 ticks)
Clique table members: 18782.
MIP emphasis: balance optimality and feasibility.
MIP search method: dynamic search.
Parallel mode: opportunistic, using up to 40 threads.
Root relaxation solution time = 0.13 sec. (126.35 ticks)

        Nodes                                         Cuts/
   Node  Left     Objective  IInf  Best Integer    Best Bound    ItCnt     Gap

*     0+    0                            0.0000  -1.54000e+13              --- 
*     0+    0                      -2.39000e+12  -1.54000e+13           544.35%
*     0+    0                      -3.59000e+12  -1.54000e+13           328.97%
*     0+    0                      -3.60000e+12  -1.54000e+13           327.78%
*     0+    0                      -4.80000e+12  -1.54000e+13           220.83%
*     0+    0                      -4.80000e+12  -1.54000e+13           220.83%
*     0+    0                      -6.00000e+12  -1.54000e+13           156.67%
*     0+    0                      -7.20000e+12  -1.54000e+13           113.89%
      0     0  -1.53900e+13    56  -7.20000e+12  -1.53900e+13     2565  113.75%
*     0+    0                      -1.53900e+13  -1.53900e+13             0.00%
      0     0  -1.53900e+13   100  -1.53900e+13      Cuts: 53     2889    0.00%
      0     0  -1.53900e+13   151  -1.53900e+13      Cuts: 68     3177    0.00%
*     0+    0                      -1.53900e+13  -1.53900e+13             0.00%
*     0+    0                      -1.53900e+13  -1.53900e+13             0.00%
*     0+    0                      -1.53900e+13  -1.53900e+13             0.00%
      0     0  -1.00000e+75     0  -1.53900e+13  -1.53900e+13     3177    0.00%
*     0+    0                      -1.53900e+13  -1.53900e+13             0.00%

Repeating presolve.
Tried aggregator 2 times.
MIP Presolve eliminated 2087 rows and 4900 columns.
MIP Presolve added 2 rows and 0 columns.
MIP Presolve modified 47 coefficients.
Aggregator did 586 substitutions.
Reduced MIP has 965 rows, 2273 columns, and 8027 nonzeros.
Reduced MIP has 2273 binaries, 0 generals, 0 SOSs, and 0 indicators.
Presolve time = 0.02 sec. (23.15 ticks)
Probing time = 0.00 sec. (2.87 ticks)
Tried aggregator 1 time.
Detecting symmetries...
Reduced MIP has 965 rows, 2273 columns, and 8027 nonzeros.
Reduced MIP has 2273 binaries, 0 generals, 0 SOSs, and 0 indicators.
Presolve time = 0.01 sec. (10.59 ticks)
Represolve time = 0.05 sec. (51.89 ticks)
Probing time = 0.00 sec. (2.80 ticks)
Clique table members: 5385.
MIP emphasis: balance optimality and feasibility.
MIP search method: dynamic search.
Parallel mode: opportunistic, using up to 40 threads.
Root relaxation solution time = 0.04 sec. (43.72 ticks)

        Nodes                                         Cuts/
   Node  Left     Objective  IInf  Best Integer    Best Bound    ItCnt     Gap

*     0+    0                      -1.53900e+13  -1.53900e+13             0.00%
      0     0  -1.53900e+13    87  -1.53900e+13  -1.53900e+13     5113    0.00%
      0     0  -1.53900e+13   114  -1.53900e+13      Cuts: 96     5530    0.00%
      0     0  -1.53900e+13   110  -1.53900e+13      Cuts: 69     5806    0.00%
      0     0  -1.53900e+13   106  -1.53900e+13      Cuts: 42     5882    0.00%
      0     0  -1.53900e+13    93  -1.53900e+13      Cuts: 26     5933    0.00%
      0     0  -1.53900e+13    69  -1.53900e+13      Cuts: 18     6041    0.00%
      0     0  -1.53900e+13    70  -1.53900e+13      Cuts: 13     6222    0.00%

Repeating presolve.
Tried aggregator 2 times.
MIP Presolve eliminated 169 rows and 665 columns.
MIP Presolve modified 1221 coefficients.
Aggregator did 6 substitutions.
Reduced MIP has 790 rows, 1594 columns, and 5522 nonzeros.
Reduced MIP has 1594 binaries, 0 generals, 0 SOSs, and 0 indicators.
Presolve time = 0.01 sec. (9.01 ticks)
Probing time = 0.00 sec. (2.72 ticks)
Tried aggregator 1 time.
Detecting symmetries...
Reduced MIP has 790 rows, 1594 columns, and 5522 nonzeros.
Reduced MIP has 1594 binaries, 0 generals, 0 SOSs, and 0 indicators.
Presolve time = 0.01 sec. (7.30 ticks)
Represolve time = 0.04 sec. (30.10 ticks)
Probing time = 0.00 sec. (2.74 ticks)
Clique table members: 3745.
MIP emphasis: balance optimality and feasibility.
MIP search method: dynamic search.
Parallel mode: opportunistic, using up to 40 threads.
Root relaxation solution time = 0.04 sec. (15.56 ticks)

        Nodes                                         Cuts/
   Node  Left     Objective  IInf  Best Integer    Best Bound    ItCnt     Gap

*     0+    0                      -1.53900e+13  -1.53900e+13             0.00%
      0     0  -1.53900e+13    42  -1.53900e+13  -1.53900e+13     6859    0.00%
      0     0  -1.53900e+13    80  -1.53900e+13      Cuts: 39     6934    0.00%
      0     0  -1.53900e+13     5  -1.53900e+13      Cuts: 29     6950    0.00%
      0     0  -1.53900e+13    67  -1.53900e+13       Cuts: 4     6975    0.00%
      0     2  -1.53900e+13    55  -1.53900e+13  -1.53900e+13     6975    0.00%
Elapsed time = 1.67 sec. (1080.65 ticks, tree = 0.02 MB, solutions = 14)

Clique cuts applied:  48
Cover cuts applied:  34
Flow cuts applied:  2
Mixed integer rounding cuts applied:  5
Zero-half cuts applied:  23
Lift and project cuts applied:  9
Gomory fractional cuts applied:  9

Root node processing (before b&c):
  Real time             =    1.46 sec. (1081.16 ticks)
Parallel b&c, 40 threads:
  Real time             =    0.24 sec. (11.35 ticks)
  Sync time (average)   =    0.09 sec.
  Wait time (average)   =    0.00 sec.
                          ------------
Total (root+branch&cut) =    1.70 sec. (1092.51 ticks)

Solution pool: 14 solutions saved.

MIP - Integer optimal solution:  Objective = -1.5389999988e+13
Solution time =    1.74 sec.  Iterations = 7269  Nodes = 11
Deterministic time = 1092.54 ticks  (629.22 ticks/sec)

CPLEX> Solution 'p15' written to file 'ee.sol'.
CPLEX> 